[2026-03-24T16:33:36.205Z] Pipeline "set_vm-3-t2_vm-3-t2_s031_g002" → 2026_03_24_16_33_36_set_vm-3-t2_vm-3-t2_s031_g002_max.sol
Set parameter Username
Set parameter LicenseID to value 2796068
Set parameter LogFile to value "gurobi.log"
Using license file /opt/gurobi/gurobi.lic
Academic license - for non-commercial use only - expires 2027-03-23

Gurobi Optimizer version 13.0.1 build v13.0.1rc0 (linux64 - "Ubuntu 24.04.4 LTS")
Copyright (c) 2026, Gurobi Optimization, LLC

Warning: Duplicate section found (read 'binary') - Is a variable name equal to an LP file format keyword?
Warning: Duplicate section found (read 'binary') - Is a variable name equal to an LP file format keyword?
Warning: Duplicate section found (read 'binary') - Is a variable name equal to an LP file format keyword?
Warning: Duplicate section found (read 'binary') - Is a variable name equal to an LP file format keyword?
Warning: Duplicate section found (read 'binary') - Is a variable name equal to an LP file format keyword?
Warning: Duplicate section found (read 'binary') - Is a variable name equal to an LP file format keyword?
Warning: Duplicate section found (read 'binary') - Is a variable name equal to an LP file format keyword?
Warning: Duplicate section found (read 'binary') - Is a variable name equal to an LP file format keyword?
Warning: Duplicate section found (read 'binary') - Is a variable name equal to an LP file format keyword?
Warning: Duplicate section found (read 'binary') - Is a variable name equal to an LP file format keyword?
Warning: Further warnings of this type will be omitted.
Read LP format model from file /root/bgw/data/uploads/2026_03_24_16_33_36_set_vm-3-t2_vm-3-t2_s031_g002_max.lp
Reading time = 0.01 seconds
: 13535 rows, 720 columns, 41373 nonzeros

Using Gurobi shared library /opt/gurobi1301/linux64/lib/libgurobi.so.13.0.1

CPU model: AMD EPYC-Genoa Processor, instruction set [SSE2|AVX|AVX2|AVX512]
Thread count: 16 physical cores, 16 logical processors, using up to 16 threads

Optimize a model with 13535 rows, 720 columns and 41373 nonzeros (Max)
Model fingerprint: 0x26fa962a
Model has 18 linear objective coefficients
Variable types: 53 continuous, 667 integer (667 binary)
Coefficient statistics:
  Matrix range     [1e+00, 4e+01]
  Objective range  [1e+00, 1e+00]
  Bounds range     [1e+00, 1e+00]
  RHS range        [1e+00, 4e+01]

Found heuristic solution: objective 18.0000000
Presolve removed 410 rows and 104 columns
Presolve time: 0.04s
Presolved: 13125 rows, 616 columns, 39599 nonzeros
Variable types: 0 continuous, 616 integer (609 binary)
Found heuristic solution: objective 40.0000000

Root relaxation: objective 9.400000e+01, 431 iterations, 0.04 seconds (0.05 work units)

    Nodes    |    Current Node    |     Objective Bounds      |     Work
 Expl Unexpl |  Obj  Depth IntInf | Incumbent    BestBd   Gap | It/Node Time

     0     0   94.00000    0   26   40.00000   94.00000   135%     -    0s
H    0     0                      41.0000000   94.00000   129%     -    0s
H    0     0                      42.0000000   94.00000   124%     -    0s
H    0     0                      48.0000000   94.00000  95.8%     -    0s
H    0     0                      50.0000000   94.00000  88.0%     -    0s
     0     0   94.00000    0   26   50.00000   94.00000  88.0%     -    0s
     0     0   94.00000    0   25   50.00000   94.00000  88.0%     -    0s
     0     0   94.00000    0   24   50.00000   94.00000  88.0%     -    0s
     0     0   94.00000    0   24   50.00000   94.00000  88.0%     -    0s
     0     0   94.00000    0   24   50.00000   94.00000  88.0%     -    0s
     0     0   94.00000    0   16   50.00000   94.00000  88.0%     -    0s
     0     0   94.00000    0   28   50.00000   94.00000  88.0%     -    0s
     0     0   94.00000    0   29   50.00000   94.00000  88.0%     -    0s
     0     0   94.00000    0   19   50.00000   94.00000  88.0%     -    0s
     0     0   94.00000    0   26   50.00000   94.00000  88.0%     -    0s
     0     0   94.00000    0   25   50.00000   94.00000  88.0%     -    0s
     0     0   94.00000    0   26   50.00000   94.00000  88.0%     -    0s
     0     0   94.00000    0   17   50.00000   94.00000  88.0%     -    0s
     0     0   93.00000    0   18   50.00000   93.00000  86.0%     -    0s
     0     0   93.00000    0   24   50.00000   93.00000  86.0%     -    0s
     0     0   93.00000    0   22   50.00000   93.00000  86.0%     -    0s
     0     0   93.00000    0   22   50.00000   93.00000  86.0%     -    0s
     0     0   93.00000    0   22   50.00000   93.00000  86.0%     -    0s
     0     2   93.00000    0   22   50.00000   93.00000  86.0%     -    0s
  1627   379   62.30303   17   16   50.00000   83.24242  66.5%   189    5s
  4419   301 infeasible   15        50.00000   66.26203  32.5%   207   10s

Cutting planes:
  Cover: 62
  Inf proof: 68

Explored 5666 nodes (1261316 simplex iterations) in 12.41 seconds (26.40 work units)
Thread count was 16 (of 16 available processors)

Solution count 6: 50 48 42 ... 18

Optimal solution found (tolerance 1.00e-04)
Best objective 5.000000000000e+01, best bound 5.000000000000e+01, gap 0.0000%

Wrote result file '/root/bgw/data/results/2026_03_24_16_33_36_set_vm-3-t2_vm-3-t2_s031_g002_max.sol'

